33D32945 STP File, STP Format Version 1.0

SECTION Comments
Name "inst10x3_09"
Creator "Kurt Anstreicher & Marcia Fampa"
Problem "Euclidean Steiner Tree Problem"
Remark "Converted automatically"
END

SECTION Graph
Nodes 10
END

SECTION Coordinates
DDD 1 8.12117818859680 6.10113576159260 7.01492600862577 
DDD 2 0.92196202719673 4.24889141308687 3.75576658455746 
DDD 3 1.66154080984799 8.33151459452637 8.38639704658968 
DDD 4 4.51614029246063 9.56601381739872 1.47153236456383 
DDD 5 8.69932929868067 7.69436400155177 4.44161615703972 
DDD 6 6.20620120992860 9.51689280797501 6.40009655546552 
DDD 7 2.47327629069328 3.52701994753117 1.87860480497763 
DDD 8 4.90644358115534 4.09274329154507 4.63525583776402 
DDD 9 6.10943549872493 0.71168465871555 3.14280289141936 
DDD 10 6.08383655197737 1.75020181950368 6.21027433549593 
END

EOF
